95 94 26 61 92 84 93 43 63 1 99 48 19 27 15 83 32 13 38 31 79 98 11 22 66 71 56 58 30 44 42 41 76 40 87 50 88 57 35 28 12 33 90 39 97 60 89 47 73 21 72 20 18 16 96 5 6 7 37 53 3 86 68 9 55 17 29 45 62 2 78 81 59 70 23 46 10 8 65 64 52 25 54 34 69 91 49 0 24 4 51 77 80 14 36 82 74 67 85 75 

